matp6620/spr07/hw3/nodepack.sol
ILOG AMPL 9.100, licensed to "rensselaer-troy, ny".
AMPL Version 20021038 (SunOS 5.8)
ampl: model nodepack.mod;
ampl: data nodepack.dat;
ampl: solve;
ILOG CPLEX 9.100, licensed to "rensselaer-troy, ny", options: e m b q 
CPLEX 9.1.0: optimal solution; objective 3.5
9 dual simplex iterations (0 in phase I)
ampl: display x;
x [*] :=
A  0.5
B  0.5
C  0.5
D  0.5
E  0.5
F  0.5
G  0
H  0.5
J  0
;

